
Gurobi 10.0.1 (win64) logging started Sun May 21 00:18:28 2023

Set parameter LogFile to value "logFiles/A-2L-C/A-2L-6U-11F-15V-180D-basic-heuristic.log"
Gurobi Optimizer version 10.0.1 build v10.0.1rc0 (win64)

CPU model: Intel(R) Core(TM) i7-10700 CPU @ 2.90GHz, instruction set [SSE2|AVX|AVX2]
Thread count: 8 physical cores, 16 logical processors, using up to 16 threads

Optimize a model with 54545 rows, 646434 columns and 3648556 nonzeros
Model fingerprint: 0x0f98b504
Variable types: 1616 continuous, 644818 integer (644818 binary)
Coefficient statistics:
  Matrix range     [1e+00, 2e+05]
  Objective range  [4e+01, 3e+07]
  Bounds range     [1e+00, 1e+00]
  RHS range        [1e+00, 4e+06]
Presolve removed 31993 rows and 35810 columns (presolve time = 5s) ...
Presolve removed 31937 rows and 35754 columns
Presolve time: 6.23s
Presolved: 22608 rows, 610680 columns, 2916739 nonzeros
Variable types: 1635 continuous, 609045 integer (609020 binary)
Deterministic concurrent LP optimizer: primal simplex, dual simplex, and barrier
Showing barrier log only...

Root barrier log...

Ordering time: 0.65s

Barrier statistics:
 AA' NZ     : 1.505e+06
 Factor NZ  : 1.381e+07 (roughly 400 MB of memory)
 Factor Ops : 3.191e+10 (less than 1 second per iteration)
 Threads    : 5

                  Objective                Residual
Iter       Primal          Dual         Primal    Dual     Compl     Time
   0  -5.75206325e+16  2.59458350e+12  6.51e+09 5.98e+04  2.38e+11    11s
   1  -1.25140226e+16  4.34947455e+12  1.43e+09 4.32e+05  5.25e+10    12s
   2  -1.70634726e+15  4.75819015e+12  1.96e+08 1.63e-09  7.26e+09    13s
   3  -3.64241414e+13  3.15470115e+12  4.18e+06 1.63e-09  1.58e+08    13s
   4  -2.17174824e+12  6.63443976e+11  2.48e+05 1.63e-09  1.01e+07    15s
   5  -6.17620190e+11  5.00503920e+11  7.07e+04 1.16e-09  3.12e+06    15s
   6  -2.08612278e+11  3.61121555e+11  2.40e+04 1.05e-09  1.18e+06    16s
   7  -1.26313199e+11  2.28407178e+11  1.46e+04 5.01e-09  6.84e+05    17s
   8  -2.67339905e+10  1.04498919e+11  3.22e+03 2.39e-08  1.82e+05    18s
   9  -7.61491730e+09  3.32022363e+10  1.04e+03 2.31e-08  5.29e+04    19s
  10   4.92125549e+07  1.43441760e+10  1.74e+02 1.01e-08  1.47e+04    20s
  11   5.25376782e+08  9.77850600e+09  1.22e+02 6.40e-09  9.64e+03    21s
  12   6.68691763e+08  9.63957196e+09  1.06e+02 5.12e-09  9.15e+03    22s
  13   9.31082461e+08  6.54714873e+09  7.77e+01 1.12e-08  5.92e+03    23s
  14   1.11461689e+09  5.39096109e+09  5.82e+01 7.98e-09  4.50e+03    24s
  15   1.22231743e+09  4.11505135e+09  4.66e+01 1.21e-08  3.18e+03    25s
  16   1.34379152e+09  3.41849069e+09  3.43e+01 1.48e-08  2.29e+03    26s
  17   1.43662526e+09  2.97716876e+09  2.50e+01 1.40e-08  1.69e+03    28s
  18   1.51326821e+09  2.52782077e+09  1.80e+01 1.27e-08  1.13e+03    29s
  19   1.52473244e+09  2.48704799e+09  1.69e+01 1.62e-08  1.07e+03    30s
  20   1.56946877e+09  2.42050304e+09  1.27e+01 1.89e-08  9.07e+02    31s
  21   1.59311592e+09  2.34945397e+09  1.06e+01 1.81e-08  7.90e+02    33s
  22   1.62596670e+09  2.11984765e+09  7.37e+00 1.62e-08  5.11e+02    34s
  23   1.64951649e+09  2.05646011e+09  5.16e+00 1.86e-08  4.03e+02    35s
  24   1.67299569e+09  1.95807969e+09  3.29e+00 1.47e-08  2.71e+02    36s
  25   1.68731561e+09  1.85521880e+09  2.18e+00 1.66e-08  1.54e+02    38s
  26   1.69947677e+09  1.84243117e+09  1.06e+00 1.82e-08  1.25e+02    39s
  27   1.70252024e+09  1.82727347e+09  8.51e-01 2.03e-08  1.08e+02    40s
  28   1.70801131e+09  1.80790056e+09  5.60e-01 1.84e-08  8.47e+01    41s
  29   1.71402232e+09  1.77212717e+09  3.29e-01 1.94e-08  4.85e+01    42s
  30   1.72034565e+09  1.75604705e+09  1.35e-01 2.24e-08  2.94e+01    43s
  31   1.72268386e+09  1.74843647e+09  9.75e-02 2.27e-08  2.12e+01    45s
  32   1.72351412e+09  1.74584532e+09  8.63e-02 2.32e-08  1.84e+01    46s
  33   1.72362601e+09  1.74517779e+09  8.36e-02 3.12e-08  1.77e+01    47s
  34   1.72452999e+09  1.74217537e+09  7.17e-02 3.01e-08  1.45e+01    48s
  35   1.72618447e+09  1.74120492e+09  5.11e-02 3.09e-08  1.23e+01    49s
  36   1.72762104e+09  1.73846422e+09  3.62e-02 3.10e-08  8.90e+00    50s
  37   1.72910470e+09  1.73713648e+09  2.28e-02 2.24e-08  6.59e+00    52s
  38   1.73001203e+09  1.73553588e+09  1.64e-02 2.00e-08  4.53e+00    53s
  39   1.73072765e+09  1.73504120e+09  1.18e-02 2.01e-08  3.54e+00    54s
  40   1.73122868e+09  1.73452308e+09  8.83e-03 3.73e-08  2.70e+00    55s
  41   1.73179931e+09  1.73394508e+09  5.56e-03 3.29e-08  1.76e+00    57s
  42   1.73209696e+09  1.73362828e+09  3.95e-03 3.32e-08  1.26e+00    58s
  43   1.73237607e+09  1.73327828e+09  2.48e-03 2.48e-08  7.42e-01    59s
  44   1.73248424e+09  1.73311685e+09  1.92e-03 2.48e-08  5.20e-01    60s
  45   1.73271368e+09  1.73297561e+09  7.46e-04 2.61e-08  2.16e-01    62s
  46   1.73275704e+09  1.73296339e+09  5.32e-04 3.29e-08  1.70e-01    63s
  47   1.73282268e+09  1.73291526e+09  2.21e-04 2.96e-08  7.62e-02    64s
  48   1.73285544e+09  1.73289292e+09  6.94e-05 2.24e-08  3.09e-02    65s
  49   1.73286236e+09  1.73288120e+09  3.89e-05 2.42e-08  1.55e-02    65s
  50   1.73286528e+09  1.73287415e+09  2.60e-05 3.72e-08  7.34e-03    66s
  51   1.73286837e+09  1.73287252e+09  1.28e-05 2.15e-08  3.44e-03    67s
  52   1.73287053e+09  1.73287169e+09  3.65e-06 3.10e-08  9.63e-04    69s
  53   1.73287149e+09  1.73287150e+09  3.59e-07 3.01e-08  7.75e-06    70s
  54   1.73287150e+09  1.73287150e+09  2.39e-09 3.05e-08  3.35e-09    72s

Barrier solved model in 54 iterations and 71.64 seconds (45.99 work units)
Optimal objective 1.73287150e+09


Root crossover log...

   17281 DPushes remaining with DInf 0.0000000e+00                72s
       0 DPushes remaining with DInf 0.0000000e+00                73s

    1295 PPushes remaining with PInf 0.0000000e+00                73s
       0 PPushes remaining with PInf 0.0000000e+00                73s

  Push phase complete: Pinf 0.0000000e+00, Dinf 7.1723102e+02     73s


Root simplex log...

Iteration    Objective       Primal Inf.    Dual Inf.      Time
   18577    1.7328715e+09   0.000000e+00   7.172310e+02     73s
   18593    1.7328715e+09   0.000000e+00   0.000000e+00     74s
Concurrent spin time: 2.05s

Solved with barrier
   18593    1.7328715e+09   0.000000e+00   0.000000e+00     76s

Root relaxation: objective 1.732871e+09, 18593 iterations, 68.35 seconds (29.63 work units)

    Nodes    |    Current Node    |     Objective Bounds      |     Work
 Expl Unexpl |  Obj  Depth IntInf | Incumbent    BestBd   Gap | It/Node Time

     0     0 1.7329e+09    0  810          - 1.7329e+09      -     -   81s
     0     0 1.7328e+09    0  696          - 1.7328e+09      -     -  220s
     0     0 1.7326e+09    0  713          - 1.7326e+09      -     -  481s
     0     0 1.7326e+09    0  713          - 1.7326e+09      -     -  481s
     0     0 1.7326e+09    0  742          - 1.7326e+09      -     -  532s
     0     0 1.7326e+09    0  756          - 1.7326e+09      -     -  553s
     0     0 1.7326e+09    0  738          - 1.7326e+09      -     -  558s
     0     0 1.7326e+09    0  731          - 1.7326e+09      -     -  634s
     0     0 1.7326e+09    0  744          - 1.7326e+09      -     - 1158s
     0     0 1.7326e+09    0  747          - 1.7326e+09      -     - 1187s
     0     0 1.7326e+09    0  741          - 1.7326e+09      -     - 1196s
     0     0 1.7325e+09    0  712          - 1.7325e+09      -     - 1236s
     0     0 1.7325e+09    0  743          - 1.7325e+09      -     - 1842s
     0     0 1.7325e+09    0  749          - 1.7325e+09      -     - 1854s
     0     0 1.7325e+09    0  749          - 1.7325e+09      -     - 1880s
     0     0 1.7325e+09    0  739          - 1.7325e+09      -     - 2405s
     0     0 1.7325e+09    0  759          - 1.7325e+09      -     - 2409s
     0     0 1.7325e+09    0  759          - 1.7325e+09      -     - 2415s
     0     0 1.7325e+09    0  768          - 1.7325e+09      -     - 2971s
     0     0 1.7325e+09    0  780          - 1.7325e+09      -     - 2975s
     0     0 1.7325e+09    0  778          - 1.7325e+09      -     - 3452s
     0     0 1.7325e+09    0  777          - 1.7325e+09      -     - 3460s
     0     0 1.7325e+09    0  758          - 1.7325e+09      -     - 3465s
H    0     0                    1.707409e+09 1.7325e+09  1.47%     - 3800s
H    0     0                    1.710125e+09 1.7325e+09  1.31%     - 6091s
     0     2 1.7325e+09    0  756 1.7101e+09 1.7325e+09  1.31%     - 6676s
     1     4 1.7325e+09    1  735 1.7101e+09 1.7325e+09  1.31% 13728 6722s
     3     8 1.7325e+09    2  727 1.7101e+09 1.7325e+09  1.31%  7470 6860s
     7    16 1.7325e+09    3  740 1.7101e+09 1.7325e+09  1.31%  6673 7100s
    15    24 1.7325e+09    4  734 1.7101e+09 1.7325e+09  1.31%  5419 7233s
    23    32 1.7325e+09    5  767 1.7101e+09 1.7325e+09  1.31% 10321 8379s
H   31    40                    1.714112e+09 1.7325e+09  1.07% 65090 10801s
H   38    40                    1.716943e+09 1.7325e+09  0.91% 53232 10802s

Cutting planes:
  Cover: 39
  Implied bound: 87
  Clique: 3
  MIR: 74
  Flow cover: 159
  GUB cover: 3
  Zero half: 1
  Network: 6
  RLT: 27
  Relax-and-lift: 7

Explored 39 nodes (2132090 simplex iterations) in 10802.56 seconds (14001.56 work units)
Thread count was 16 (of 16 available processors)

Solution count 4: 1.71694e+09 1.71411e+09 1.71013e+09 1.70741e+09 

Time limit reached
Best objective 1.716943381221e+09, best bound 1.732489628855e+09, gap 0.9055%
